Instance: Data/Instances_txt/inst_100_30_4.txt
SetUpTime: 133.7992651462555

Gurobi 10.0.1 (mac64[x86]) logging started Do 27 Jul 17:16:09 2023

Set parameter LogFile to value "Output/MILP_inst_100_30_4_2023-07-27_17-13-54.txt"
Set parameter TimeLimit to value 200

Gurobi 10.0.1 (mac64[x86]) logging started Do 27 Jul 17:16:09 2023

Set parameter LogFile to value "Output/MILP_inst_100_30_4_2023-07-27_17-13-54.txt"
Gurobi Optimizer version 10.0.1 build v10.0.1rc0 (mac64[x86])

CPU model: Intel(R) Core(TM) i5-1038NG7 CPU @ 2.00GHz
Thread count: 4 physical cores, 8 logical processors, using up to 8 threads

Optimize a model with 201 rows, 95800 columns and 847693 nonzeros
Model fingerprint: 0xb8b20640
Variable types: 0 continuous, 95800 integer (0 binary)
Coefficient statistics:
  Matrix range     [1e+00, 1e+00]
  Objective range  [1e+00, 1e+04]
  Bounds range     [1e+00, 1e+00]
  RHS range        [1e+00, 1e+00]
Presolve removed 0 rows and 10 columns
Presolve time: 1.83s
Presolved: 201 rows, 95790 columns, 847618 nonzeros
Variable types: 0 continuous, 95790 integer (95790 binary)

Starting sifting (using dual simplex for sub-problems)...

    Iter     Pivots    Primal Obj      Dual Obj        Time
       0          0     infinity      0.0000000e+00      3s
       1       1064   1.0200000e+08   1.9809084e+02      3s
       2       1684   1.0200000e+08   3.8845701e+02      3s
       3       2699   1.0200000e+08   5.1487564e+02      3s
       4       3592   9.4154722e+07   9.1884715e+02      3s
       5       4772   9.0232531e+07   1.0236498e+03      3s
       6       5924   8.6310300e+07   1.2031268e+03      3s
       7       7569   8.5002821e+07   1.3020272e+03      3s
       8       8639   5.3438009e+07   1.9561414e+03      3s
       9      10116   5.1009724e+07   1.9957358e+03      3s
      10      11147   5.1009670e+07   2.2882881e+03      3s
      11      13246   5.1009670e+07   2.3416222e+03      3s
      12      14744   4.5936785e+07   2.3844649e+03      3s
      13      16018   3.9028365e+07   2.6288669e+03      3s
      14      17298   3.1063146e+07   2.7057595e+03      4s
      15      18772   2.8048562e+07   2.7736548e+03      4s
      16      20381   2.4699706e+07   2.8283301e+03      4s
      17      21842   2.0741060e+07   2.8830045e+03      4s
      18      23526   1.8441296e+07   3.1095357e+03      4s
      19      25640   1.1668184e+07   3.1246141e+03      4s
      20      28320   9.7448901e+06   3.1076532e+03      5s
      21      30483   6.5984184e+06   3.2066719e+03      5s
      22      33198   4.4219954e+06   3.2481805e+03      5s
      23      35698   2.1734900e+06   3.3069988e+03      5s
      24      37553   8.6813010e+05   3.3576868e+03      5s
      25      39039   5.0491453e+04   3.3619021e+03      6s
      26      40239   3.1814381e+04  -3.6480257e+04      6s
      27      41577   2.5691516e+04  -3.4842015e+04      6s
      28      42834   2.2318455e+04  -3.0168288e+04      6s
      29      44283   2.0412856e+04  -2.2802541e+04      6s
      30      45666   1.8821216e+04  -1.9254706e+04      6s
      31      47270   1.8442889e+04  -2.5079130e+03      7s
      32      49184   1.7978120e+04   7.6013125e+03      7s
      33      50755   1.7742461e+04   1.5390694e+04      7s
      34      51747   1.7713209e+04   1.7197918e+04      7s
      35      52436   1.7713209e+04   1.7975541e+04      7s

Sifting complete


Root simplex log...

Iteration    Objective       Primal Inf.    Dual Inf.      Time
   52712    1.8409496e+04   0.000000e+00   0.000000e+00      7s

Root relaxation: objective 1.840950e+04, 52712 iterations, 4.88 seconds (6.09 work units)

    Nodes    |    Current Node    |     Objective Bounds      |     Work
 Expl Unexpl |  Obj  Depth IntInf | Incumbent    BestBd   Gap | It/Node Time

     0     0 18409.4958    0   69          - 18409.4958      -     -    8s
     0     0 18414.0196    0  103          - 18414.0196      -     -    8s
     0     0 18415.5588    0  105          - 18415.5588      -     -    9s
     0     0 18418.0139    0   96          - 18418.0139      -     -    9s
     0     0 18422.9412    0  104          - 18422.9412      -     -   10s
     0     0 18425.4271    0   97          - 18425.4271      -     -   10s
     0     0 18426.7091    0  104          - 18426.7091      -     -   10s
     0     0 18431.3178    0   93          - 18431.3178      -     -   10s
     0     0 18437.2483    0   96          - 18437.2483      -     -   10s
     0     0 18440.6618    0   92          - 18440.6618      -     -   11s
     0     0 18444.8182    0   96          - 18444.8182      -     -   11s
H    0     0                    18713.000000 18444.8182  1.43%     -   14s
H    0     0                    18683.000000 18444.8182  1.27%     -   14s
H    0     0                    18563.000000 18444.8182  0.64%     -   15s
H    0     0                    18478.000000 18444.8182  0.18%     -   15s

Cutting planes:
  Zero half: 27
  RLT: 17

Explored 1 nodes (54371 simplex iterations) in 16.43 seconds (13.64 work units)
Thread count was 8 (of 8 available processors)

Solution count 4: 18478 18563 18683 18713 

Optimal solution found (tolerance 1.00e-04)
Best objective 1.847800000000e+04, best bound 1.847800000000e+04, gap 0.0000%

User-callback calls 3749, time in user-callback 0.01 sec

=========================

OUTPUT STATISTICS
Time since start: 153.0462989807129
SetUpTime: 133.7992651462555
Objective value: 18478.0
Gap: 0.0
Number of variables: 95800
MIP relative gap: 0.0
